(declare-datatypes () ((Nat (Z) (S (p Nat)))))
(declare-datatypes () ((list (nil) (cons (head Nat) (tail list)))))
(declare-datatypes ()
  ((Heap (Node (Node_0 Heap) (Node_1 Nat) (Node_2 Heap)) (Nil))))
(declare-fun plus (Nat Nat) Nat)
(declare-fun le (Nat Nat) Bool)
(declare-fun merge (Heap Heap) Heap)
(declare-fun toList (Nat Heap) list)
(declare-fun mergeLists (list list) list)
(declare-fun heapSize (Heap) Nat)
(declare-fun toList2 (Heap) list)
(assert
  (not
    (forall ((x Heap) (y Heap))
      (= (toList2 (merge x y)) (mergeLists (toList2 x) (toList2 y))))))
(assert
  (forall ((x Nat) (y Nat))
    (= (plus x y) (ite (is-S x) (S (plus (p x) y)) y))))
(assert
  (forall ((x Nat) (y Nat))
    (= (le x y)
      (ite (is-S x) (ite (is-S y) (le (p x) (p y)) false) true))))
(assert
  (forall ((x Heap) (y Heap))
    (= (merge x y)
      (ite
        (is-Nil x) y
        (ite
          (is-Nil y) (Node (Node_0 x) (Node_1 x) (Node_2 x))
          (ite
            (le (Node_1 x) (Node_1 y))
            (Node (merge (Node_2 x) (Node (Node_0 y) (Node_1 y) (Node_2 y)))
              (Node_1 x) (Node_0 x))
            (Node (merge (Node (Node_0 x) (Node_1 x) (Node_2 x)) (Node_2 y))
              (Node_1 y) (Node_0 y))))))))
(assert
  (forall ((x Nat) (y Heap))
    (= (toList x y)
      (ite
        (is-S x)
        (ite
          (is-Nil y) nil
          (cons (Node_1 y) (toList (p x) (merge (Node_0 y) (Node_2 y)))))
        nil))))
(assert
  (forall ((x list) (y list))
    (= (mergeLists x y)
      (ite
        (is-cons x)
        (ite
          (is-cons y)
          (ite
            (le (head x) (head y))
            (cons (head x) (mergeLists (tail x) (cons (head y) (tail y))))
            (cons (head y) (mergeLists (cons (head x) (tail x)) (tail y))))
          (cons (head x) (tail x)))
        y))))
(assert
  (forall ((x Heap))
    (= (heapSize x)
      (ite
        (is-Nil x) Z
        (S (plus (heapSize (Node_0 x)) (heapSize (Node_2 x))))))))
(assert
  (forall ((x Heap)) (= (toList2 x) (toList (heapSize x) x))))
(check-sat)
